%BLOCK LATTICE_ABC
  16.991420000000002  16.350000000000001  16.050000000000001
  90.000000000000000  90.000000000000000  90.000000000000000
%ENDBLOCK LATTICE_ABC

%BLOCK POSITIONS_FRAC
   A   0.946150454599646   0.100176734905982   0.082051799736384
   A   0.056474258918384   0.099058289835320   0.248665992505647
   A   0.451249166263446   0.609067560196151   0.418898715394453
   A   0.564244021860689   0.607442834978992   0.587974568096735
   A   0.614532936307998   0.489427939858457   0.440911629163907
   A   0.437195394937611   0.390347644823699   0.412961712528376
   A   0.427440124088420   0.481165704031982   0.585824657000634
   B   0.337135820190430   0.581509144437290   0.515553261724079
   B   0.509420006450973   0.497902501071234   0.331619736368433
   B   0.589820523994445   0.434821518801386   0.610044375243670
   B   0.528751862132085   0.352157601676573   0.539855719805850
   A   0.945293360218532   0.100099707900881   0.415740203008888
   A   0.056048933227798   0.100725733516798   0.582422533569740
   A   0.945744190321118   0.101587449937366   0.748872337073007
   A   0.056887997848206   0.100297680799586   0.915447783795828
   A   0.279052302684918   0.099549417112245   0.081710569818643
   A   0.389083309370960   0.098315204753259   0.248204301261504
   A   0.278251017104934   0.098207226409429   0.415433589469201
   A   0.389324057371866   0.097958783179452   0.582117459846105
   A   0.278976218837632   0.100270046739411   0.748743256332896
   A   0.389988426157244   0.099662215635989   0.915574221811288
   A   0.111996108276068   0.199923939971325   0.081660879799224
   A   0.222222543431580   0.197789933452756   0.247641274724079
   A   0.110688252219904   0.198640954434326   0.414990302497549
   A   0.221779375028875   0.199542603849347   0.582072546828740
   A   0.112353746631351   0.200711692266715   0.748882346038967
   A   0.223210542767703   0.199793397128929   0.914856236641885
   A   0.945270952695859   0.300121175089657   0.082230621993054
   A   0.055668665003574   0.299098668186189   0.248383259372341
   A   0.945423453410184   0.299747667889175   0.415578010974034
   A   0.057893662117139   0.300686459765572   0.582134432579071
   A   0.946503186769191   0.301254635995475   0.749033401063563
   A   0.057099755840921   0.300356331782517   0.914904072916374
   A   0.613181172588991   0.099007765845550   0.081013474274973
   A   0.723977339825902   0.099384118093776   0.248579361181449
   A   0.612909586382252   0.098693768291799   0.415184084665208
   A   0.723578868318434   0.102228016688993   0.581995082647679
   A   0.613052006129489   0.101440419935518   0.748510269380324
   A   0.723938335053763   0.100998851352531   0.914980116815740
   A   0.446227112765300   0.199011903415985   0.081097872046856
   A   0.556298090003928   0.195160123914173   0.246921544710004
   A   0.445026067154570   0.196254242471127   0.414512753398748
   A   0.556222055003057   0.198277029434006   0.581643106760000
   A   0.445686350635397   0.198478603476533   0.748989287849561
   A   0.556950915006711   0.200530401773034   0.913229574583708
   A   0.278315742723009   0.299166109023713   0.080305886480034
   A   0.388451183351546   0.297340158930159   0.246011435019252
   A   0.274998847347365   0.295541084449911   0.413917782088757
   A   0.387432009518742   0.293110347704661   0.582972880159194
   A   0.278925401764141   0.300329830856745   0.748231473946849
   A   0.389637295853542   0.298724137389208   0.916051132125614
   A   0.111231456659043   0.399696334451654   0.080953399004462
   A   0.221010163184079   0.396708619167716   0.244666369257994
   A   0.110468581909865   0.398818361679767   0.415229458411465
   A   0.228514832429565   0.404344158588284   0.579067685671069
   A   0.113913919165013   0.401512533116977   0.747579893997432
   A   0.223839449011694   0.400397862621243   0.913539210400462
   A   0.945170770666812   0.500175455946471   0.083328705637061
   A   0.056333426637775   0.499540413293023   0.249222268206572
   A   0.945252969225167   0.500228769882721   0.416413612975429
   A   0.054984234459650   0.499221981004054   0.582864131783781
   A   0.945227169821911   0.500774123508244   0.750046046134272
   A   0.056699610049192   0.499855187686836   0.916391840372647
   A   0.780085992828856   0.199522215909895   0.081399996856109
   A   0.890482175147500   0.199353939227843   0.248904475256932
   A   0.778896307168265   0.200156070998779   0.415821548481804
   A   0.889136220185197   0.201861798619883   0.582178904967018
   A   0.778692262701359   0.202357574848641   0.747469487861029
   A   0.890467223859089   0.200641888138324   0.914957961266130
   A   0.614133304866300   0.296530807049268   0.077810624227480
   A   0.725305712337277   0.297810105862529   0.247878522987660
   A   0.611411614893957   0.296541840891085   0.410585350407546
   A   0.717421065160427   0.305722519016151   0.580192673393370
   A   0.611847396598656   0.303171973702228   0.745203915446420
   A   0.724157111132453   0.300575009776777   0.914280585145822
   A   0.445031322069494   0.399137916144950   0.079684627427206
   A   0.559395481697220   0.388327084746925   0.238777107249890
   A   0.447985805884142   0.396066120258842   0.755043561511091
   A   0.558286525729066   0.400487720437455   0.916849794498232
   A   0.277288554442972   0.499611056525317   0.079412750721722
   A   0.385574710331032   0.499149250743057   0.242279679467553
   A   0.274951139698020   0.493837348520914   0.405169790338570
   A   0.282990804951574   0.500897812750548   0.745368286558522
   A   0.390576898188200   0.500548790812396   0.915122911362911
   A   0.111688978895801   0.600044358010057   0.082155885904523
   A   0.221839922253190   0.600409434734998   0.247318778825616
   A   0.111931486647159   0.599714844279809   0.416714506316331
   A   0.211423613978271   0.604217741788066   0.590221305521427
   A   0.109844727039723   0.600793612732248   0.753136287422604
   A   0.223801901017470   0.600179018282973   0.914891674019785
   A   0.945485069723616   0.700230940512442   0.083785814636556
   A   0.056290628416924   0.699565385644857   0.249834377780586
   A   0.945186316544472   0.700287384762688   0.416162769196233
   A   0.053678897963093   0.703296855106701   0.583418046372633
   A   0.945648001899434   0.702033748130760   0.750797550677243
   A   0.056920928686802   0.701083919034492   0.917388343067726
   A   0.778288128782210   0.400253439246784   0.083653734444576
   A   0.889358015211875   0.400212894261620   0.249364009553930
   A   0.780211454154253   0.399148204366512   0.416166588640417
   A   0.890335818948557   0.399617931615634   0.582940918275456
   A   0.779737215009122   0.400942480346756   0.750902801735075
   A   0.890493407764663   0.400457407611898   0.916744121758281
   A   0.612223820851454   0.500158221471685   0.082323770260175
   A   0.718783221858565   0.499423068448002   0.254007931544165
   A   0.730773168277364   0.504146964861005   0.590067315039401
   A   0.614027610973127   0.503581910685711   0.754515889959146
   A   0.724901868095627   0.501202919277703   0.917997784960278
   A   0.445467844800949   0.600321797120316   0.081133557283446
   A   0.560618348383329   0.609685204055584   0.241311013679531
   A   0.447486558840819   0.600765972931991   0.749816345039389
   A   0.557418266691908   0.601822473950508   0.917265445284956
   A   0.279141323320946   0.699852722825269   0.082346893607654
   A   0.390070037680288   0.699559472999317   0.250002875426764
   A   0.278772238951961   0.698995995921571   0.417271608886093
   A   0.393868919569105   0.706291974159509   0.588257268345633
   A   0.279627804992872   0.701142034864092   0.750625774600697
   A   0.390587647104923   0.700864646566675   0.916089609465857
   A   0.112579235974856   0.800020216363154   0.083326444054184
   A   0.223467819502827   0.799278127426895   0.249808631237370
   A   0.112289669166619   0.799708387064233   0.416453335201204
   A   0.223629907042042   0.801000064841007   0.583064535639976
   A   0.112766136555668   0.800728960655623   0.749679905917933
   A   0.223563441616464   0.800391794588462   0.916424093966281
   A   0.946490258920429   0.900478883604134   0.082763173906270
   A   0.057108583479657   0.899532839803002   0.249474974113523
   A   0.946139681873906   0.900491144838104   0.416175490950234
   A   0.056934426224759   0.901416668419546   0.582879622558860
   A   0.946424660406939   0.901760388711051   0.749592758752379
   A   0.057233498627810   0.900561539881570   0.916115559213463
   A   0.778536464399933   0.600047999319001   0.084850010924596
   A   0.889187574051100   0.599378633626859   0.250451217898477
   A   0.778545887487835   0.599260076538124   0.418080461097249
   A   0.892144323344433   0.602107365017276   0.583815582108479
   A   0.780611947325666   0.603221729259035   0.752649675229164
   A   0.891128662763633   0.600839056294272   0.917709326436642
   A   0.614210115503104   0.703163675808109   0.080053882925070
   A   0.725887906434899   0.701901249997394   0.249665735866428
   A   0.615597553148430   0.699986513221561   0.415881292434018
   A   0.726991680128526   0.703605429122183   0.584252836840512
   A   0.614395241615098   0.703782729402213   0.752268637493165
   A   0.725054825079166   0.701520403570255   0.917208549817985
   A   0.446200319395898   0.799872668969929   0.083233921069505
   A   0.557408702654022   0.802835304264154   0.249636610563442
   A   0.446557611941360   0.802606249138163   0.416746735181337
   A   0.559172960711669   0.803290391048158   0.583172447548419
   A   0.447435623796115   0.802218933628560   0.751533916487944
   A   0.557240160824977   0.802123930735933   0.916602336868763
   A   0.279164489212992   0.899722496767485   0.082771088039233
   A   0.389716427950489   0.899424652455778   0.249186054076153
   A   0.278955228947305   0.899336346775282   0.416197603628199
   A   0.390373607164511   0.901600193090549   0.583233449216139
   A   0.279509291999771   0.900596101910443   0.749559801868267
   A   0.390078569205742   0.900543338591351   0.916651329275350
   A   0.112670267219778   0.000032422800297   0.082360704235136
   A   0.223058083507386   0.998791061779825   0.248978175985972
   A   0.112085078969272   0.999619123892085   0.415816751545416
   A   0.222829954638185   0.000091354239398   0.582605099044567
   A   0.112572002685839   0.000879581473239   0.749249601618819
   A   0.223488560520306   0.000094926963027   0.915702965317026
   A   0.780246630555917   0.801181025718737   0.083004058974775
   A   0.891090151793700   0.800526314789723   0.249675398854573
   A   0.780166078385337   0.801004074329098   0.416385527562296
   A   0.890495364021734   0.802777462154022   0.583251638247787
   A   0.780203438121032   0.802976321934755   0.750365691472136
   A   0.890870000004943   0.801205358708955   0.916757045136627
   A   0.613190362766477   0.901006412511590   0.082507982559999
   A   0.724353803480339   0.900678354174341   0.249267904434416
   A   0.613714605366337   0.900290330871751   0.416028431516931
   A   0.724489982919628   0.902614737102372   0.582873018142377
   A   0.613633102904880   0.902435714729262   0.749640788863014
   A   0.724012708447419   0.901343224084661   0.916236706407460
   A   0.446047993028113   0.999587865321236   0.082412275248632
   A   0.556820759837837   0.999279651248717   0.248868228959322
   A   0.446012337316126   0.999383046151672   0.415352656185287
   A   0.557186956597413   0.000774166377422   0.582384722755474
   A   0.446260724334517   0.000469233837928   0.749461799771556
   A   0.556968475825614   0.001039247996535   0.915459811416346
   A   0.779959425825090   0.000393996107265   0.082215248108042
   A   0.890601585364783   0.999883968063478   0.249068702042143
   A   0.779700857120859   0.000565671322372   0.415792451476634
   A   0.890301921070791   0.001775006387723   0.582605228662863
   A   0.779778062929095   0.002248043184738   0.749108553046905
   A   0.890582417038247   0.000808677004864   0.915768402067069
%ENDBLOCK POSITIONS_FRAC

FIX_ALL_CELL = .true.

SYMMETRY_GENERATE
SNAP_TO_SYMMETRY

%BLOCK EXTERNAL_PRESSURE
   0.00000   0.00000   0.00000
   0.00000   0.00000
   0.00000
%ENDBLOCK EXTERNAL_PRESSURE

