#              Generated by Buildcell
#
# at 15:41:48 (GMT+1.0) 6th October 2023
# in /home/michal/install/eddp/airss/examples/1.11
# on DESKTOP-0ITMUTI
# by michal
#
# compiler GCC version 11.4.0
# options -cpp -imultiarch x86_64-linux-gnu -mtune=generic -march=x86-64 -g -Og -fpre-include=/usr/include/finclude/math-vector-fortran.h
#
# seed  1830061524  2112830114   911684665   997629891   357666703  1600498645  2060524391   821983942
#
#      Author: C. J. Pickard (cjp20@cam.ac.uk)
#                Space group: P1
#

%BLOCK LATTICE_ABC
     16.99142     16.35000     16.05000
     90.00000     90.00000     90.00000
%ENDBLOCK LATTICE_ABC

%BLOCK POSITIONS_FRAC
   A       -0.0555556        0.1000000        0.0833333
   A        0.0555556        0.1000000        0.2500000
   A        0.4129689       -0.3602575        0.4199040
   A       -0.3788668       -0.4000000       -0.3673543
   A       -0.3316939       -0.4999542        0.3951286
   A        0.4444444        0.4000001        0.3521065
   A       -0.4709483       -0.3856898       -0.4879630
   B        0.4131155        0.4904245        0.4783193
   B       -0.4760228       -0.4717699        0.3834139
   B       -0.4127571        0.3672511       -0.3875875
   B        0.4945647        0.3570895        0.4918778
   A       -0.0555556        0.1000000        0.4166667
   A        0.0555556        0.1000000       -0.4166667
   A       -0.0555556        0.1000000       -0.2500000
   A        0.0555556        0.1000000       -0.0833333
   A        0.2777778        0.1000000        0.0833333
   A        0.3888889        0.1000000        0.2500000
   A        0.2777778        0.1000000        0.4166667
   A        0.3888889        0.1000000       -0.4166667
   A        0.2777778        0.1000000       -0.2500000
   A        0.3888889        0.1000000       -0.0833333
   A        0.1111111        0.2000000        0.0833333
   A        0.2222222        0.2000000        0.2500000
   A        0.1111111        0.2000000        0.4166667
   A        0.2222222        0.2000000       -0.4166667
   A        0.1111111        0.2000000       -0.2500000
   A        0.2222222        0.2000000       -0.0833333
   A       -0.0555556        0.3000000        0.0833333
   A        0.0555556        0.3000000        0.2500000
   A       -0.0555556        0.3000000        0.4166667
   A        0.0555556        0.3000000       -0.4166667
   A       -0.0555556        0.3000000       -0.2500000
   A        0.0555556        0.3000000       -0.0833333
   A       -0.3888889        0.1000000        0.0833333
   A       -0.2777778        0.1000000        0.2500000
   A       -0.3888889        0.1000000        0.4166667
   A       -0.2777778        0.1000000       -0.4166667
   A       -0.3888889        0.1000000       -0.2500000
   A       -0.2777778        0.1000000       -0.0833333
   A        0.4444444        0.2000000        0.0833333
   A       -0.4444444        0.2000000        0.2500000
   A        0.4444444        0.2000000        0.4166667
   A       -0.4444444        0.2000000       -0.4166667
   A        0.4444444        0.2000000       -0.2500000
   A       -0.4444444        0.2000000       -0.0833333
   A        0.2777778        0.3000000        0.0833333
   A        0.3888889        0.3000000        0.2500000
   A        0.2777778        0.3000000        0.4166667
   A        0.3888889        0.3000000       -0.4166667
   A        0.2777778        0.3000000       -0.2500000
   A        0.3888889        0.3000000       -0.0833333
   A        0.1111111        0.4000000        0.0833333
   A        0.2222222        0.4000000        0.2500000
   A        0.1111111        0.4000000        0.4166667
   A        0.2222222        0.4000000       -0.4166667
   A        0.1111111        0.4000000       -0.2500000
   A        0.2222222        0.4000000       -0.0833333
   A       -0.0555556       -0.5000000        0.0833333
   A        0.0555556       -0.5000000        0.2500000
   A       -0.0555556        0.5000000        0.4166667
   A        0.0555556       -0.5000000       -0.4166667
   A       -0.0555556        0.5000000       -0.2500000
   A        0.0555556       -0.5000000       -0.0833333
   A       -0.2222222        0.2000000        0.0833333
   A       -0.1111111        0.2000000        0.2500000
   A       -0.2222222        0.2000000        0.4166667
   A       -0.1111111        0.2000000       -0.4166667
   A       -0.2222222        0.2000000       -0.2500000
   A       -0.1111111        0.2000000       -0.0833333
   A       -0.3888889        0.3000000        0.0833333
   A       -0.2777778        0.3000000        0.2500000
   A       -0.3888889        0.3000000        0.4166667
   A       -0.2777778        0.3000000       -0.4166667
   A       -0.3888889        0.3000000       -0.2500000
   A       -0.2777778        0.3000000       -0.0833333
   A        0.4444444        0.4000000        0.0833333
   A       -0.4444444        0.4000000        0.2500000
   A        0.4444444        0.4000000       -0.2500000
   A       -0.4444444        0.4000000       -0.0833333
   A        0.2777778       -0.5000000        0.0833333
   A        0.3888889       -0.5000000        0.2500000
   A        0.2777778       -0.5000000        0.4166667
   A        0.2777778       -0.5000000       -0.2500000
   A        0.3888889       -0.5000000       -0.0833333
   A        0.1111111       -0.4000000        0.0833333
   A        0.2222222       -0.4000000        0.2500000
   A        0.1111111       -0.4000000        0.4166667
   A        0.2222222       -0.4000000       -0.4166667
   A        0.1111111       -0.4000000       -0.2500000
   A        0.2222222       -0.4000000       -0.0833333
   A       -0.0555556       -0.3000000        0.0833333
   A        0.0555556       -0.3000000        0.2500000
   A       -0.0555556       -0.3000000        0.4166667
   A        0.0555556       -0.3000000       -0.4166667
   A       -0.0555556       -0.3000000       -0.2500000
   A        0.0555556       -0.3000000       -0.0833333
   A       -0.2222222        0.4000000        0.0833333
   A       -0.1111111        0.4000000        0.2500000
   A       -0.2222222        0.4000000        0.4166667
   A       -0.1111111        0.4000000       -0.4166667
   A       -0.2222222        0.4000000       -0.2500000
   A       -0.1111111        0.4000000       -0.0833333
   A       -0.3888889       -0.5000000        0.0833333
   A       -0.2777778       -0.5000000        0.2500000
   A       -0.2777778       -0.5000000       -0.4166667
   A       -0.3888889       -0.5000000       -0.2500000
   A       -0.2777778       -0.5000000       -0.0833333
   A        0.4444444       -0.4000000        0.0833333
   A       -0.4444444       -0.4000000        0.2500000
   A        0.4444444       -0.4000000       -0.2500000
   A       -0.4444444       -0.4000000       -0.0833333
   A        0.2777778       -0.3000000        0.0833333
   A        0.3888889       -0.3000000        0.2500000
   A        0.2777778       -0.3000000        0.4166667
   A        0.3888889       -0.3000000       -0.4166667
   A        0.2777778       -0.3000000       -0.2500000
   A        0.3888889       -0.3000000       -0.0833333
   A        0.1111111       -0.2000000        0.0833333
   A        0.2222222       -0.2000000        0.2500000
   A        0.1111111       -0.2000000        0.4166667
   A        0.2222222       -0.2000000       -0.4166667
   A        0.1111111       -0.2000000       -0.2500000
   A        0.2222222       -0.2000000       -0.0833333
   A       -0.0555556       -0.1000000        0.0833333
   A        0.0555556       -0.1000000        0.2500000
   A       -0.0555556       -0.1000000        0.4166667
   A        0.0555556       -0.1000000       -0.4166667
   A       -0.0555556       -0.1000000       -0.2500000
   A        0.0555556       -0.1000000       -0.0833333
   A       -0.2222222       -0.4000000        0.0833333
   A       -0.1111111       -0.4000000        0.2500000
   A       -0.2222222       -0.4000000        0.4166667
   A       -0.1111111       -0.4000000       -0.4166667
   A       -0.2222222       -0.4000000       -0.2500000
   A       -0.1111111       -0.4000000       -0.0833333
   A       -0.3888889       -0.3000000        0.0833333
   A       -0.2777778       -0.3000000        0.2500000
   A       -0.3888889       -0.3000000        0.4166667
   A       -0.2777778       -0.3000000       -0.4166667
   A       -0.3888889       -0.3000000       -0.2500000
   A       -0.2777778       -0.3000000       -0.0833333
   A        0.4444444       -0.2000000        0.0833333
   A       -0.4444444       -0.2000000        0.2500000
   A        0.4444444       -0.2000000        0.4166667
   A       -0.4444444       -0.2000000       -0.4166667
   A        0.4444444       -0.2000000       -0.2500000
   A       -0.4444444       -0.2000000       -0.0833333
   A        0.2777778       -0.1000000        0.0833333
   A        0.3888889       -0.1000000        0.2500000
   A        0.2777778       -0.1000000        0.4166667
   A        0.3888889       -0.1000000       -0.4166667
   A        0.2777778       -0.1000000       -0.2500000
   A        0.3888889       -0.1000000       -0.0833333
   A        0.1111111       -0.0000000        0.0833333
   A        0.2222222       -0.0000000        0.2500000
   A        0.1111111       -0.0000000        0.4166667
   A        0.2222222       -0.0000000       -0.4166667
   A        0.1111111        0.0000000       -0.2500000
   A        0.2222222        0.0000000       -0.0833333
   A       -0.2222222       -0.2000000        0.0833333
   A       -0.1111111       -0.2000000        0.2500000
   A       -0.2222222       -0.2000000        0.4166667
   A       -0.1111111       -0.2000000       -0.4166667
   A       -0.2222222       -0.2000000       -0.2500000
   A       -0.1111111       -0.2000000       -0.0833333
   A       -0.3888889       -0.1000000        0.0833333
   A       -0.2777778       -0.1000000        0.2500000
   A       -0.3888889       -0.1000000        0.4166667
   A       -0.2777778       -0.1000000       -0.4166667
   A       -0.3888889       -0.1000000       -0.2500000
   A       -0.2777778       -0.1000000       -0.0833333
   A        0.4444444        0.0000000        0.0833333
   A       -0.4444444        0.0000000        0.2500000
   A        0.4444444        0.0000000        0.4166667
   A       -0.4444444        0.0000000       -0.4166667
   A        0.4444444        0.0000000       -0.2500000
   A       -0.4444444        0.0000000       -0.0833333
   A       -0.2222222        0.0000000        0.0833333
   A       -0.1111111        0.0000000        0.2500000
   A       -0.2222222        0.0000000        0.4166667
   A       -0.1111111        0.0000000       -0.4166667
   A       -0.2222222       -0.0000000       -0.2500000
   A       -0.1111111        0.0000000       -0.0833333
%ENDBLOCK POSITIONS_FRAC

FIX_ALL_CELL : true

%BLOCK EXTERNAL_PRESSURE
0 0 0 
0 0
0
%ENDBLOCK EXTERNAL_PRESSURE
