#              Generated by Buildcell
#
# at 13:35:18 (GMT+0.0) 6th November 2023
# in /home/michal/install/eddp/airss/examples/1.10
# on DESKTOP-0ITMUTI
# by michal
#
# compiler GCC version 11.4.0
# options -cpp -imultiarch x86_64-linux-gnu -mtune=generic -march=x86-64 -g -Og -fpre-include=/usr/include/finclude/math-vector-fortran.h
#
# seed   267988155  2101908482 -1145211811  -832100298   282927119 -1213146564  1344080910   916276609
#
#      Author: C. J. Pickard (cjp20@cam.ac.uk)
#                Space group: P1
#

%BLOCK LATTICE_ABC
      2.87245      3.60905      9.51679
     99.38375     93.71668    107.96707
%ENDBLOCK LATTICE_ABC

%BLOCK POSITIONS_FRAC
   A        0.5928961        0.6612143        0.0594995
   A        0.0978866        0.2087896        0.5189058
   A        0.1017926        0.1222194        0.7285089
   A        0.6738993        0.6447286        0.2289123
   C        0.3116380        0.8068282        0.6590321
   C        0.3332452        0.3444767        0.8800653
%ENDBLOCK POSITIONS_FRAC

%BLOCK EXTERNAL_PRESSURE
0 0 0 
0 0
0
%ENDBLOCK EXTERNAL_PRESSURE
