%BLOCK LATTICE_ABC
   2.195122447894649   2.195122498285342   7.450607832103668
  90.000000069563455  89.999999979150786  89.999999576645905
%ENDBLOCK LATTICE_ABC

%BLOCK POSITIONS_FRAC
   A   0.922738984081966   0.702222148913251   0.058839992871723
   A   0.922738982823218   0.702222151239513   0.466134637070298
   A   0.922738982952184   0.702222150190468   0.762487314349110
   A   0.422738983915402   0.202222148934339   0.262487317952382
   C   0.422738982604855   0.202222151424145   0.614619247115564
   C   0.422738983622374   0.202222149298277   0.910355390640928
%ENDBLOCK POSITIONS_FRAC

SYMMETRY_GENERATE
SNAP_TO_SYMMETRY

%BLOCK EXTERNAL_PRESSURE
   0.00000   0.00000   0.00000
   0.00000   0.00000
   0.00000
%ENDBLOCK EXTERNAL_PRESSURE

