#              Generated by Buildcell
#
# at 13:31:06 (GMT+0.0) 6th November 2023
# in /home/michal/install/eddp/airss/examples/1.10
# on DESKTOP-0ITMUTI
# by michal
#
# compiler GCC version 11.4.0
# options -cpp -imultiarch x86_64-linux-gnu -mtune=generic -march=x86-64 -g -Og -fpre-include=/usr/include/finclude/math-vector-fortran.h
#
# seed  1414414800  -130623060  1771282374  -166902592 -1590529836  -420987607  -961818841 -1686967729
#
#      Author: C. J. Pickard (cjp20@cam.ac.uk)
#                Space group: P1
#

%BLOCK LATTICE_ABC
      2.87172      3.67982      9.33993
     79.97933     83.31933     74.76098
%ENDBLOCK LATTICE_ABC

%BLOCK POSITIONS_FRAC
   A        0.9604830        0.2194064        0.0620544
   A        0.3971488        0.1980079        0.9329519
   B        0.8538260        0.2864860        0.6301336
   B        0.6319058        0.7828003        0.6509348
   B        0.8845038        0.2985056        0.7963553
   C        0.1954329        0.7125028        0.9839447
%ENDBLOCK POSITIONS_FRAC

%BLOCK EXTERNAL_PRESSURE
0 0 0 
0 0
0
%ENDBLOCK EXTERNAL_PRESSURE
