%BLOCK LATTICE_ABC
   2.183067803326681   2.183067803326694   3.087329813059119
  90.000000000027498  89.999999999973795  89.999798890047757
%ENDBLOCK LATTICE_ABC

%BLOCK POSITIONS_FRAC
   A   0.405532552071308   0.910486547919534   0.741625691907663
   A   0.905532547928694   0.410486552080466   0.241625708092338
%ENDBLOCK POSITIONS_FRAC

SYMMETRY_GENERATE
SNAP_TO_SYMMETRY

%BLOCK EXTERNAL_PRESSURE
   0.00000   0.00000   0.00000
   0.00000   0.00000
   0.00000
%ENDBLOCK EXTERNAL_PRESSURE

