#              Generated by Buildcell
#
# at 13:24:22 (GMT+0.0) 6th November 2023
# in /home/michal/install/eddp/airss/examples/1.10
# on DESKTOP-0ITMUTI
# by michal
#
# compiler GCC version 11.4.0
# options -cpp -imultiarch x86_64-linux-gnu -mtune=generic -march=x86-64 -g -Og -fpre-include=/usr/include/finclude/math-vector-fortran.h
#
# seed   452915738 -1275809574  -538805330  -756657386 -1161113731 -1752311189 -1113889183 -1672470257
#
#      Author: C. J. Pickard (cjp20@cam.ac.uk)
#                Space group: P1
#

%BLOCK LATTICE_ABC
      2.56661      2.94726      4.14998
     81.92097     72.85168     80.52093
%ENDBLOCK LATTICE_ABC

%BLOCK POSITIONS_FRAC
   A        0.4013843        0.8779568        0.6295200
   A        0.9096808        0.4430163        0.3537314
%ENDBLOCK POSITIONS_FRAC

%BLOCK EXTERNAL_PRESSURE
0 0 0 
0 0
0
%ENDBLOCK EXTERNAL_PRESSURE
