%BLOCK LATTICE_ABC
      3.55828      3.79216      7.91700
     93.55941     94.23945    101.12834
%ENDBLOCK LATTICE_ABC

%BLOCK POSITIONS_FRAC
   A        0.5000631        0.7012433        0.5771063
   B        0.5703342        0.8986436        0.3771711
   B        0.6325173        0.1010229        0.5534777
   B        0.5739210        0.2867228        0.1173955
   B        0.9969728        0.3610184        0.5274646
   B        0.9380113        0.0573211        0.9814609
   B        0.3425273        0.5714473        0.1727165
%ENDBLOCK POSITIONS_FRAC
#MINSEP=1.5
#POSAMP=-1.5
#CELLAMP=0
