%BLOCK LATTICE_ABC
   2.836052987332131   2.836053095372924   3.479733547221178
  90.000004232192580  90.000000000025025  60.000001260252411
%ENDBLOCK LATTICE_ABC

%BLOCK POSITIONS_FRAC
   A   0.987216725834059   0.259013931745342   0.403612192116952
   A   0.653883374500116   0.925680634411367   0.781846040916133
   B   0.653883406664843   0.925680570483241   0.268627940965939
   B   0.320550049419999   0.592347283548015   0.592729116676549
   B   0.987216693685945   0.259013996432876   0.916830292641546
   C   0.320550049895017   0.592347283379170   0.092729116682885
%ENDBLOCK POSITIONS_FRAC

SYMMETRY_GENERATE
SNAP_TO_SYMMETRY

%BLOCK EXTERNAL_PRESSURE
   0.00000   0.00000   0.00000
   0.00000   0.00000
   0.00000
%ENDBLOCK EXTERNAL_PRESSURE

