%BLOCK LATTICE_ABC
   2.620578949161994   3.218845248271372   4.173076666800262
  82.673679222015480  89.999999942295005 114.020794933540415
%ENDBLOCK LATTICE_ABC

%BLOCK POSITIONS_FRAC
   A   0.650620997145094   0.568202765441769   0.758113223895095
   B   0.792535129157038   0.852031028953285   0.335855173078680
   B   0.365291376245125   0.997543523929784   0.620081881052411
   B   0.508706868044503   0.284374508217224   0.180371285150310
   B   0.082104032939118   0.431168837587559   0.481345921347931
   B   0.935950627390054   0.138862026888237   0.896144582193968
   B   0.219137969079076   0.705236708982152   0.034880533281607
%ENDBLOCK POSITIONS_FRAC

SYMMETRY_GENERATE
SNAP_TO_SYMMETRY

%BLOCK EXTERNAL_PRESSURE
   0.00000   0.00000   0.00000
   0.00000   0.00000
   0.00000
%ENDBLOCK EXTERNAL_PRESSURE

