%BLOCK LATTICE_ABC
     20.00000     20.00000     20.00000
     90.00000     90.00000     90.00000
%ENDBLOCK LATTICE_ABC

%BLOCK POSITIONS_FRAC
  Al        0.3610207        0.6252315        0.3332594
  Al        0.6454305        0.4671175        0.6038178
  Al        0.4246271        0.3263871        0.7208653
  Al        0.5770256        0.5587004        0.4913262
  Al        0.4961652        0.4185111        0.3653031
  Al        0.5987962        0.4824054        0.4595063
  Al        0.4650196        0.7070532        0.3995199
  Al        0.3629069        0.5208254        0.6065583
  Al        0.3812600        0.3722390        0.6455248
  Al        0.4880076        0.2929348        0.5256732
  Al        0.3578523        0.4969226        0.5352529
  Al        0.4408843        0.4211357        0.2929885
  Al        0.5454886        0.7092715        0.3979323
  Al        0.4742424        0.6786103        0.5536460
  Al        0.4246643        0.5912628        0.6328268
  Al        0.5035790        0.6533844        0.6965362
  Al        0.5133886        0.6299458        0.4976754
  Al        0.4945024        0.5685927        0.3571677
  Al        0.6384136        0.4741081        0.3424902
  Al        0.5276636        0.5034200        0.5600079
  Al        0.5693789        0.5926179        0.5789668
  Al        0.5583429        0.5098252        0.6309730
  Al        0.5389228        0.5213818        0.4107908
  Al        0.4111554        0.4563653        0.4047237
  Al        0.4970546        0.5726334        0.6511622
  Al        0.5836866        0.5056754        0.2988671
  Al        0.4837941        0.4936575        0.6621729
  Al        0.4489269        0.3562301        0.5053803
  Al        0.6373984        0.4399524        0.4100042
  Al        0.5629688        0.4054105        0.7129360
  Al        0.4286836        0.4889932        0.4712585
  Al        0.5128465        0.4307056        0.4854266
  Al        0.5232003        0.5058101        0.4832896
  Al        0.6150584        0.4477217        0.5245255
  Al        0.4607436        0.5304958        0.2730711
  Al        0.3407781        0.4091278        0.5437741
  Al        0.5695820        0.6113081        0.4358198
  Al        0.5365397        0.2240287        0.4989797
%ENDBLOCK POSITIONS_FRAC




 

FIX_ALL_CELL : true

#MINSEP=1.5
#CLUSTER
#POSAMP=1.0
#CELLAMP=0
