Crystal system: Cubic
Symm: R3m Nops: 6
Formula units: 1
Note - automatic minsep/targvol for C4B


Cell contraints - setting compact=.false.
Cell not compacted
Mult: 6 2
Mult: 2
Applying slack of: 0.250

Number of rejects: 10
Symm: P-3 Nops: 6

Crystal system: Hexagonal
Symm: I-4c2 Nops: 8
Formula units: 1
Note - automatic minsep/targvol for C6B


Cell contraints - setting compact=.false.
Cell not compacted
Mult: 8 4
Mult: 2
Applying slack of: 0.250

Crystal system: Rhombohedral
Symm: Pc Nops: 2
Formula units: 1
Note - automatic minsep/targvol for C6B


Cell contraints - setting compact=.false.
Cell not compacted
Mult: 2 2 2 2 2 2
Mult: 2
Applying slack of: 0.250

Crystal system: Monoclinic
Symm: P32 Nops: 3
Formula units: 1
Note - automatic minsep/targvol for C4B


Cell contraints - setting compact=.false.
Cell not compacted
Mult: 3 3 1 1
Applying slack of: 0.250

Number of rejects: 10
Symm: P3 Nops: 3

Crystal system: Monoclinic
Symm: C2 Nops: 2
Formula units: 1
Note - automatic minsep/targvol for C10B3


Cell contraints - setting compact=.false.
Cell not compacted
Mult: 2 2 2 2 2
Mult: 2 1
Applying slack of: 0.250

Crystal system: Rhombohedral
Symm: Pm Nops: 2
Formula units: 1
Note - automatic minsep/targvol for C10B3


Cell contraints - setting compact=.false.
Cell not compacted
Mult: 2 2 2 2 2
Mult: 2 1
Applying slack of: 0.250

Crystal system: Orthorhombic
Symm: R3 Nops: 3
Formula units: 1
Note - automatic minsep/targvol for C11B3


Cell contraints - setting compact=.false.
Cell not compacted
Mult: 3 3 3 1 1
Mult: 3
Applying slack of: 0.250
:--~
Varying cell, volume fixed
Using hard sphere potentials
Overlap: 0.00000

Total rejects: 21

Star contraction: 100.00%

# Generated by Buildcell
#
# in /opt/atlassian/pipelines/agent/build/test
# by
#
# compiler GCC version 9.3.0
#
# seed 0 0 0 0 0 0 0 0
#
# Author: C. J. Pickard (cjp20@cam.ac.uk)
# Space group: R3
#

%BLOCK LATTICE_ABC
5.27306 5.27306 5.27306
90.03833 90.03833 90.03833
%ENDBLOCK LATTICE_ABC

%BLOCK POSITIONS_FRAC
C 0.0409286 -0.1308931 0.0999260
C -0.1308931 0.0999260 0.0409286
C 0.0999260 0.0409286 -0.1308931
C -0.4741411 0.0058868 -0.2299235
C 0.0058868 -0.2299235 -0.4741411
C -0.2299235 -0.4741411 0.0058868
C -0.1740888 0.3533516 0.4342233
C 0.3533516 0.4342233 -0.1740888
C 0.4342233 -0.1740888 0.3533516
C 0.1406917 0.1406917 0.1406917
C 0.3095918 0.3095918 0.3095918
B 0.2108220 -0.3161658 -0.0726126
B -0.3161658 -0.0726126 0.2108220
B -0.0726126 0.2108220 -0.3161658
%ENDBLOCK POSITIONS_FRAC

KPOINTS_MP_SPACING 0.07

%BLOCK CELL_CONSTRAINTS
1 1 1
0 0 0
%ENDBLOCK CELL_CONSTRAINTS

%BLOCK SPECIES_POT
QC5
%ENDBLOCK SPECIES_POT

SNAP_TO_SYMMETRY
SYMMETRY_GENERATE

REM
REM
REM
REM Spacing 0.07
REM
REM
REM ./quick_check.cell (6f1b2217de3a09b009825ab7bccd3bf9)
REM cmdline: airss.pl -pp3 -max 1 -seed quick_check
REM seed 0 0 0 0 0 0 0 0
REM
REM quick_check.pp (17fe98196ce0684f469cdf3d56c30bec)
REM
CELL 1.54180 4.57073 4.57073 4.57073 80.03293 80.03293 80.03293
LATT -1
SFAC C B
C 1 0.0895094318362 0.6842262165512 0.0895094312027 1.0
C 1 0.6842262165512 0.0895094312027 0.0895094318362 1.0
C 1 0.0895094312027 0.0895094318362 0.6842262165512 1.0
C 1 0.6434725504057 0.0114857811050 0.6434725510038 1.0
C 1 0.0114857811050 0.6434725510038 0.6434725504057 1.0
C 1 0.6434725510038 0.6434725504057 0.0114857811050 1.0
C 1 0.8025871692550 0.4018748847994 0.4018748824597 1.0
C 1 0.4018748847994 0.4018748824597 0.8025871692550 1.0
C 1 0.4018748824597 0.8025871692550 0.4018748847994 1.0
C 1 0.1298270286136 0.1298270286136 0.1298270286136 1.0
C 1 0.3568943181900 0.3568943181900 0.3568943181900 1.0
B 2 0.3587273798541 0.7920676371678 0.7920676375557 1.0
B 2 0.7920676371678 0.7920676375557 0.3587273798541 1.0
B 2 0.7920676375557 0.3587273798541 0.7920676371678 1.0
END
