%BLOCK LATTICE_CART
1.775807 0 0
0 1.775807 0
0 0 1.775807
%ENDBLOCK LATTICE_CART

#VARVOL=5.6 

%BLOCK POSITIONS_FRAC
C 0.0 0.0 0.0 # C1 % NUM=8
%ENDBLOCK POSITIONS_FRAC

#SYMMOPS=2-4
##SGRANK=20
#NFORM=1
##ADJGEN=0-1
#SLACK=0.25
#OVERLAP=0.1
#MINSEP=1-3 AUTO
#COMPACT
#CELLADAPT
##SYSTEM={Rhom,Tric,Mono,Cubi,Hexa,Orth,Tetra}
 
KPOINTS_MP_SPACING 0.07
 
SYMMETRY_GENERATE
SNAP_TO_SYMMETRY
 
%BLOCK SPECIES_POT
QC5
%ENDBLOCK SPECIES_POT
 
%BLOCK EXTERNAL_PRESSURE
0 0 0
0 0
0
%ENDBLOCK EXTERNAL_PRESSURE
